1
30 100 
2 3
1 2
3 7
4 5
4 50
2 3
1 2
3 7
4 5
4 20
2 3
1 2
3 7
4 5
4 50
2 3
1 2
3 7
4 5
4 10
2 3
1 2
3 7
4 5
4 30
2 3
1 2
3 7
4 5
4 20
2 3
1 2
3 7
4 5
4 50
2 3
1 2
3 7
4 5
4 50
2 3
1 2
3 7
4 5
4 50
2 3
1 2
3 7
4 5
4 70
2 3
1 2
3 7
4 5
4 50
2 3
1 2
3 7
4 5
4 50
2 3
1 2
3 7
4 5
4 50
2 3
1 2
3 7
4 5
4 50
2 3
1 2
3 7
4 5
4 50
2 3
1 2
3 7
4 5
4 50
2 3
1 2
3 7
4 5
4 50
2 3
1 2
3 7
4 5
4 50
2 3
1 2
3 7
4 5
4 50
2 3
1 2
3 7
4 5
4 15
